language Essence 1.3

letting bot_end be [4521, 3768, 774, 296, 4361, 4605, 1691, 352, 295, 4462, 4546, 4504, 2007, 4640, 3501; int(1..15)]
letting bot_start be [2361, 970, 2176, 2687, 1077, 258, 3718, 2205, 2996, 611, 2113, 1042, 3067, 1849, 1650; int(1..15)]
letting buffer_col be 2
letting buffer_row be 2
letting corridor_size be 3
letting n_shelves_col be 11
letting n_shelves_row be 19
letting shelf_col_size be 2
letting shelf_row_size be 1
